c This is QMaxSAT 2017 based on 14.07
c This is Glucose 3.0
c This is MiniSat 2.2.0
c WARNING: for repeatability, setting FPU to use double precision
c card = mrwto, comp = 0, pmodel = 0, narr = 3, mct = 24, verb = 0
cr firstCPXsol 0 0 0
c top = 81479
c |  Number of variables:    13366                                            |
c |  Number of clauses:      2932230                                          |
c |  Weight of hard clauses: 81479                                            |
c |  Number of soft clauses: 1656                                             |
c |  Number of unit soft clauses: 1656                                        |
c |  Maximum Cardinality (by unit): 244434       (244434      )               |
c last restart ## conflicts  :  173 4440 
o 2145 | cpuTime 0.457586 s
c Sum of weights = 81478
c A number of soft clauses remained = 552
c MRWTO encoding for Pseudo-Boolean Constraints
c sizeMax=2145
c No.0 Divisor=13	generated by pow1
c No.1 Divisor=13	generated by pow1
c No.2 Divisor=13	generated by pow1
c p0= 13	p1= 13	p2= 13	
c number of digits = 4
c linkingVar[0].size = 13, linkingVar[1].size = 13, linkingVar[2].size = 13, linkingVar[3].size = 1, 
c Pseudo-Boolean Constraints: 12764 variables and 134398 clauses
c Sum of weights = 81478
c A number of soft clauses remained = 552
c MRWTO encoding for Pseudo-Boolean Constraints
c sizeMax=2145
c No.0 Divisor=13	generated by pow1
c No.1 Divisor=13	generated by pow1
c No.2 Divisor=13	generated by pow1
c p0= 13	p1= 13	p2= 13	
c number of digits = 4
c linkingVar[0].size = 13, linkingVar[1].size = 13, linkingVar[2].size = 13, linkingVar[3].size = 1, 
c Pseudo-Boolean Constraints: 12764 variables and 134398 clauses
c Sum of weights = 81478
c A number of soft clauses remained = 552
c MRWTO encoding for Pseudo-Boolean Constraints
c sizeMax=2145
c No.0 Divisor=13	generated by pow1
c No.1 Divisor=13	generated by pow1
c No.2 Divisor=13	generated by pow1
c p0= 13	p1= 13	p2= 13	
c number of digits = 4
c linkingVar[0].size = 13, linkingVar[1].size = 13, linkingVar[2].size = 13, linkingVar[3].size = 1, 
c Pseudo-Boolean Constraints: 12764 variables and 134398 clauses
c last restart ## conflicts  :  50 6210 
o 1731 | cpuTime 1.00709 s
c last restart ## conflicts  :  42 5529 
o 1592 | cpuTime 1.21808 s
c last restart ## conflicts  :  623 6867 
o 1341 | cpuTime 1.32528 s
c last restart ## conflicts  :  598 5336 
o 1198 | cpuTime 2.0274 s
c last restart ## conflicts  :  2554 4768 
o 1052 | cpuTime 2.50999 s
c last restart ## conflicts  :  218 5897 
o 923 | cpuTime 4.51001 s
c last restart ## conflicts  :  118 4919 
o 914 | cpuTime 28.4294 s
c last restart ## conflicts  :  1471 4474 
o 898 | cpuTime 48.4959 s
c last restart ## conflicts  :  4673 4419 
o 885 | cpuTime 132.63 s
c last restart ## conflicts  :  22 11467 
o 873 | cpuTime 132.651 s
c last restart ## conflicts  :  527 6340 
o 867 | cpuTime 200.238 s
c last restart ## conflicts  :  2256 4279 
o 864 | cpuTime 223.2 s
c last restart ## conflicts  :  797 4208 
o 860 | cpuTime 265.295 s
c last restart ## conflicts  :  2436 3956 
o 856 | cpuTime 282.828 s
c last restart ## conflicts  :  693 4471 
o 845 | cpuTime 288.433 s
c last restart ## conflicts  :  370 5687 
o 838 | cpuTime 313.906 s
c last restart ## conflicts  :  686 4425 
o 823 | cpuTime 347.062 s
c last restart ## conflicts  :  43 4671 
o 821 | cpuTime 375.753 s
c last restart ## conflicts  :  409 4892 
o 804 | cpuTime 636.344 s
c last restart ## conflicts  :  251 5237 
o 794 | cpuTime 673.327 s
c last restart ## conflicts  :  15 6117 
o 779 | cpuTime 1840.73 s
c last restart ## conflicts  :  130 5730 
o 774 | cpuTime 2373.45 s
c last restart ## conflicts  :  93 7645 
o 766 | cpuTime 2529.17 s
s UNKNOWN
c Search is stopped by a limit (maybe time-limit)
cr positiVarArr: [ | 6@1(1->6) | 41@1(2->17) | 141@1(6->21) | 402@1(17->18) | 409@1(18->1) | 434@1(19->2) | 499@1(21->19) | 588@2(1->12) | 649@2(4->1) | 768@2(8->24) | 781@2(9->13) | 800@2(10->8) | 863@2(12->23) | 878@2(13->14) | 898@2(14->10) | 1113@2(23->9) | 1132@2(24->4) | 1157@3(1->5) | 1211@3(3->11) | 1268@3(5->20) | 1312@3(7->16) | 1399@3(11->7) | 1510@3(15->22) | 1513@3(16->1) | 1623@3(20->15) | 1659@3(22->3) | ]
cr the 1-th chain: [ 1->6->21->19->2->17->18->1 ] (#non-depot=6) {#cumul.=7}
cr the 2-th chain: [ 1->12->23->9->13->14->10->8->24->4->1 ] (#non-depot=9) {#cumul.=16}
cr the 3-th chain: [ 1->5->20->15->22->3->11->7->16->1 ] (#non-depot=8) {#cumul.=24}
c Latest Answer = 0 by 24 loops
c restarts              : 107004
c conflicts             : 15127352       (4211 /sec)
c decisions             : 77718576       (0.00 % random) (21637 /sec)
c propagations          : 12062712609    (3358283 /sec)
c conflict literals     : 2884856606     (24.39 % deleted)
c Memory used           : 862.00 MB
c CPU time              : 3591.93 s
